100
128
21
25
26
58
27
59
11
50
63
19
12
44
19
8
3
40
8
12
5
61
15
61
36
26
8
14
43
50
7
18
64
16
34
42
55
47
19
19
2
7
19
54
46
16
54
59
51
33
49
34
1
6
54
36
3
55
47
12
59
45
40
21
13
5
3
34
27
1
12
43
32
61
36
49
45
7
51
12
3
63
43
46
3
18
59
33
40
41
30
45
36
27
49
49
52
8
29
41
64
4